16.08 0.16 4.67 22.1 0.27 3.49 18.18 0.28 2.5 19.3 0.15 4.03 21.37 0.12 2.88
26.51 0.22 2.82 15.29 0.26 3.54 25.59 0.21 4.82 12.49 0.18 4.92 26.59 0.12 3.5
16.62 0.29 2.95 28.74 0.11 2.06 15.19 0.12 2.04 15.58 0.18 2.61 22.5 0.22 4.25
13.71 0.27 4.76 22.53 0.27 2.15 18.25 0.15 2.44 27.73 0.14 4.85 17.82 0.11 4.08
18.03 0.15 4.83 29.96 0.23 4.45 26.65 0.14 4.61 18.07 0.15 2.26 20.8 0.12 4.66
